
Gurobi 11.0.0 (win64) logging started Sat Jun 15 09:41:49 2024

Set parameter LogFile to value "./GurobiLog/stage_3_iter_1.log"
Gurobi Optimizer version 11.0.0 build v11.0.0rc2 (win64 - Windows 10.0 (18363.2))

CPU model: Intel(R) Core(TM) i7-8700 CPU @ 3.20GHz, instruction set [SSE2|AVX|AVX2]
Thread count: 6 physical cores, 12 logical processors, using up to 1 threads

Optimize a model with 1065 rows, 10910 columns and 18470 nonzeros
Coefficient statistics:
  Matrix range     [1e+00, 4e+01]
  Objective range  [2e+00, 2e+05]
  Bounds range     [1e+00, 4e+02]
  RHS range        [1e+00, 3e+04]
LP warm-start: use basis
Iteration    Objective       Primal Inf.    Dual Inf.      Time
       0   -1.1874470e+05   1.383109e+04   0.000000e+00      0s
     313    1.9995332e+04   0.000000e+00   0.000000e+00      0s

Solved in 313 iterations and 0.01 seconds (0.01 work units)
Optimal objective  1.999533167e+04

Gurobi 11.0.0 (win64) logging started Sat Jun 15 10:40:09 2024

Set parameter LogFile to value "./GurobiLog/stage_3_iter_1.log"
Gurobi Optimizer version 11.0.0 build v11.0.0rc2 (win64 - Windows 10.0 (18363.2))

CPU model: Intel(R) Core(TM) i7-8700 CPU @ 3.20GHz, instruction set [SSE2|AVX|AVX2]
Thread count: 6 physical cores, 12 logical processors, using up to 1 threads

Optimize a model with 1065 rows, 10910 columns and 18470 nonzeros
Coefficient statistics:
  Matrix range     [1e+00, 4e+01]
  Objective range  [2e+00, 2e+05]
  Bounds range     [1e+00, 4e+02]
  RHS range        [1e+00, 3e+04]
LP warm-start: use basis
Iteration    Objective       Primal Inf.    Dual Inf.      Time
       0   -7.7888527e+04   2.331433e+04   0.000000e+00      0s
     388    1.9714067e+04   0.000000e+00   0.000000e+00      0s

Solved in 388 iterations and 0.01 seconds (0.01 work units)
Optimal objective  1.971406667e+04

Gurobi 11.0.0 (win64) logging started Sat Jun 15 10:59:01 2024

Set parameter LogFile to value "./GurobiLog/stage_3_iter_1.log"
Gurobi Optimizer version 11.0.0 build v11.0.0rc2 (win64 - Windows 10.0 (18363.2))

CPU model: Intel(R) Core(TM) i7-8700 CPU @ 3.20GHz, instruction set [SSE2|AVX|AVX2]
Thread count: 6 physical cores, 12 logical processors, using up to 1 threads

Optimize a model with 1065 rows, 10910 columns and 18470 nonzeros
Coefficient statistics:
  Matrix range     [1e+00, 4e+01]
  Objective range  [2e+00, 2e+05]
  Bounds range     [1e+00, 4e+02]
  RHS range        [1e+00, 3e+04]
LP warm-start: use basis
Iteration    Objective       Primal Inf.    Dual Inf.      Time
       0   -1.2257723e+04   7.623532e+03   0.000000e+00      0s
     252    1.9366590e+04   0.000000e+00   0.000000e+00      0s

Solved in 252 iterations and 0.01 seconds (0.01 work units)
Optimal objective  1.936659000e+04
